p cnf 10 26
-10 -9 8 0
-10 -9 -2 0
10 8 7 0
-10 -8 7 0
-10 -8 -6 0
-10 -7 -1 0
-10 -6 -4 0
-10 5 -4 0
-9 -8 -6 0
-9 6 -2 0
8 -7 6 0
-8 7 -6 0
8 -7 3 0
8 7 -3 0
-8 5 4 0
-8 -5 3 0
8 5 3 0
-8 5 2 0
-8 -3 1 0
-8 -3 -1 0
-7 6 2 0
7 5 -3 0
7 -5 -1 0
7 -3 -2 0
-7 3 2 0
-7 3 -2 0
